c forall Vars 49
c Exists Vars 74
c Introduced Vars 18
c Original Exists Vars 56
c Eliminated Vars number 66
p cnf 123 521
e 1 2 3 4 5 6 7 8 9 10 11 12 13 14 15 16 17 18 19 20 21 22 23 24 25 26 27 28 29 30 31 32 33 34 35 36 37 38 39 40 41 42 43 44 45 46 47 48 49 50 51 52 53 54 55 56 0
a 57 58 59 60 61 62 63 64 65 66 67 68 69 70 71 72 73 74 75 76 77 78 79 80 81 82 83 84 85 86 87 88 89 90 91 92 93 94 95 96 97 98 99 100 101 102 103 104 105 0
e 106 107 108 109 110 111 112 113 114 115 116 117 118 119 120 121 122 123 0
-50 0
-51 0
-53 0
-52 0
-50 106 0
-51 106 0
-53 106 0
-52 106 0
-43 106 0
-44 106 0
-46 106 0
-45 106 0
43 -51 -56 -55 50 -106 0
-43 -51 -56 55 -106 0
-43 50 56 -106 0
-43 50 -56 -55 -106 0
44 -52 56 55 51 -106 0
-44 -52 56 -55 -106 0
-44 51 -56 -106 0
-44 51 56 55 -106 0
45 -53 -56 55 52 -106 0
-45 -53 -56 -55 -106 0
-45 52 56 -106 0
-45 52 -56 55 -106 0
46 -50 56 55 54 53 -106 0
-46 -50 56 55 -54 -106 0
-46 53 -56 -106 0
-46 53 56 -55 -106 0
-46 53 56 55 54 -106 0
-43 107 0
-44 107 0
-46 107 0
-45 107 0
-36 107 0
-37 107 0
-39 107 0
-38 107 0
36 -44 -49 -48 43 -107 0
-36 -44 -49 48 -107 0
-36 43 49 -107 0
-36 43 -49 -48 -107 0
37 -45 49 48 44 -107 0
-37 -45 49 -48 -107 0
-37 44 -49 -107 0
-37 44 49 48 -107 0
38 -46 -49 48 45 -107 0
-38 -46 -49 -48 -107 0
-38 45 49 -107 0
-38 45 -49 48 -107 0
39 -43 49 48 47 46 -107 0
-39 -43 49 48 -47 -107 0
-39 46 -49 -107 0
-39 46 49 -48 -107 0
-39 46 49 48 47 -107 0
-36 108 0
-37 108 0
-39 108 0
-38 108 0
-29 108 0
-30 108 0
-32 108 0
-31 108 0
29 -37 -42 -41 36 -108 0
-29 -37 -42 41 -108 0
-29 36 42 -108 0
-29 36 -42 -41 -108 0
30 -38 42 41 37 -108 0
-30 -38 42 -41 -108 0
-30 37 -42 -108 0
-30 37 42 41 -108 0
31 -39 -42 41 38 -108 0
-31 -39 -42 -41 -108 0
-31 38 42 -108 0
-31 38 -42 41 -108 0
32 -36 42 41 40 39 -108 0
-32 -36 42 41 -40 -108 0
-32 39 -42 -108 0
-32 39 42 -41 -108 0
-32 39 42 41 40 -108 0
-29 109 0
-30 109 0
-32 109 0
-31 109 0
-22 109 0
-23 109 0
-25 109 0
-24 109 0
22 -30 -35 -34 29 -109 0
-22 -30 -35 34 -109 0
-22 29 35 -109 0
-22 29 -35 -34 -109 0
23 -31 35 34 30 -109 0
-23 -31 35 -34 -109 0
-23 30 -35 -109 0
-23 30 35 34 -109 0
24 -32 -35 34 31 -109 0
-24 -32 -35 -34 -109 0
-24 31 35 -109 0
-24 31 -35 34 -109 0
25 -29 35 34 33 32 -109 0
-25 -29 35 34 -33 -109 0
-25 32 -35 -109 0
-25 32 35 -34 -109 0
-25 32 35 34 33 -109 0
-22 110 0
-23 110 0
-25 110 0
-24 110 0
-15 110 0
-16 110 0
-18 110 0
-17 110 0
15 -23 -28 -27 22 -110 0
-15 -23 -28 27 -110 0
-15 22 28 -110 0
-15 22 -28 -27 -110 0
16 -24 28 27 23 -110 0
-16 -24 28 -27 -110 0
-16 23 -28 -110 0
-16 23 28 27 -110 0
17 -25 -28 27 24 -110 0
-17 -25 -28 -27 -110 0
-17 24 28 -110 0
-17 24 -28 27 -110 0
18 -22 28 27 26 25 -110 0
-18 -22 28 27 -26 -110 0
-18 25 -28 -110 0
-18 25 28 -27 -110 0
-18 25 28 27 26 -110 0
-15 111 0
-16 111 0
-18 111 0
-17 111 0
-8 111 0
-9 111 0
-11 111 0
-10 111 0
8 -16 -21 -20 15 -111 0
-8 -16 -21 20 -111 0
-8 15 21 -111 0
-8 15 -21 -20 -111 0
9 -17 21 20 16 -111 0
-9 -17 21 -20 -111 0
-9 16 -21 -111 0
-9 16 21 20 -111 0
10 -18 -21 20 17 -111 0
-10 -18 -21 -20 -111 0
-10 17 21 -111 0
-10 17 -21 20 -111 0
11 -15 21 20 19 18 -111 0
-11 -15 21 20 -19 -111 0
-11 18 -21 -111 0
-11 18 21 -20 -111 0
-11 18 21 20 19 -111 0
-8 112 0
-9 112 0
-11 112 0
-10 112 0
-1 112 0
-2 112 0
-4 112 0
-3 112 0
1 -9 -14 -13 8 -112 0
-1 -9 -14 13 -112 0
-1 8 14 -112 0
-1 8 -14 -13 -112 0
2 -10 14 13 9 -112 0
-2 -10 14 -13 -112 0
-2 9 -14 -112 0
-2 9 14 13 -112 0
3 -11 -14 13 10 -112 0
-3 -11 -14 -13 -112 0
-3 10 14 -112 0
-3 10 -14 13 -112 0
4 -8 14 13 12 11 -112 0
-4 -8 14 13 -12 -112 0
-4 11 -14 -112 0
-4 11 14 -13 -112 0
-4 11 14 13 12 -112 0
99 100 102 101 92 93 95 94 118 117 116 115 114 113 0
99 100 102 101 -92 120 119 118 117 116 115 114 113 0
99 100 102 101 120 119 118 117 116 115 114 113 0
99 100 102 101 105 120 119 118 117 116 115 114 113 0
99 100 102 101 104 120 119 118 117 116 115 114 113 0
99 100 102 101 105 120 119 118 117 116 115 114 113 0
99 100 102 101 104 120 119 118 117 116 115 114 113 0
99 100 102 101 92 -120 119 118 117 116 115 114 113 0
99 100 102 101 121 -120 119 118 117 116 115 114 113 0
99 100 102 101 105 121 -120 119 118 117 116 115 114 113 0
99 100 102 101 -105 -104 121 -120 119 118 117 116 115 114 113 0
99 100 102 101 -105 104 -121 -120 119 118 117 116 115 114 113 0
99 100 102 101 -93 121 120 -119 118 117 116 115 114 113 0
99 100 102 101 121 120 -119 118 117 116 115 114 113 0
99 100 102 101 -105 121 120 -119 118 117 116 115 114 113 0
99 100 102 101 -104 121 120 -119 118 117 116 115 114 113 0
99 100 102 101 -105 121 120 -119 118 117 116 115 114 113 0
99 100 102 101 -104 121 120 -119 118 117 116 115 114 113 0
99 100 102 101 93 -121 120 -119 118 117 116 115 114 113 0
99 100 102 101 122 -121 120 -119 118 117 116 115 114 113 0
99 100 102 101 -105 122 -121 120 -119 118 117 116 115 114 113 0
99 100 102 101 105 104 122 -121 120 -119 118 117 116 115 114 113 0
99 100 102 101 105 -104 -122 -121 120 -119 118 117 116 115 114 113 0
99 100 102 101 -94 122 121 -120 -119 118 117 116 115 114 113 0
99 100 102 101 122 121 -120 -119 118 117 116 115 114 113 0
99 100 102 101 105 122 121 -120 -119 118 117 116 115 114 113 0
99 100 102 101 -104 122 121 -120 -119 118 117 116 115 114 113 0
99 100 102 101 105 122 121 -120 -119 118 117 116 115 114 113 0
99 100 102 101 -104 122 121 -120 -119 118 117 116 115 114 113 0
99 100 102 101 94 -122 121 -120 -119 118 117 116 115 114 113 0
99 100 102 101 123 -122 121 -120 -119 118 117 116 115 114 113 0
99 100 102 101 105 123 -122 121 -120 -119 118 117 116 115 114 113 0
99 100 102 101 -105 104 123 -122 121 -120 -119 118 117 116 115 114 113 0
99 100 102 101 -105 -104 -123 -122 121 -120 -119 118 117 116 115 114 113 0
99 100 102 101 -95 122 -121 -120 -119 118 117 116 115 114 113 0
99 100 102 101 122 -121 -120 -119 118 117 116 115 114 113 0
99 100 102 101 -105 122 -121 -120 -119 118 117 116 115 114 113 0
99 100 102 101 -104 122 -121 -120 -119 118 117 116 115 114 113 0
99 100 102 101 -103 122 -121 -120 -119 118 117 116 115 114 113 0
99 100 102 101 -105 122 -121 -120 -119 118 117 116 115 114 113 0
99 100 102 101 -104 122 -121 -120 -119 118 117 116 115 114 113 0
99 100 102 101 -103 122 -121 -120 -119 118 117 116 115 114 113 0
99 100 102 101 95 -122 -121 -120 -119 118 117 116 115 114 113 0
99 100 102 101 123 -122 -121 -120 -119 118 117 116 115 114 113 0
99 100 102 101 -105 123 -122 -121 -120 -119 118 117 116 115 114 113 0
99 100 102 101 105 -104 123 -122 -121 -120 -119 118 117 116 115 114 113 0
99 100 102 101 105 104 103 123 -122 -121 -120 -119 118 117 116 115 114 113 0
99 100 102 101 105 104 -103 -123 -122 -121 -120 -119 118 117 116 115 114 113 0
92 93 95 94 85 86 88 87 -118 117 116 115 114 113 0
-85 120 119 -118 117 116 115 114 113 0
93 120 119 -118 117 116 115 114 113 0
98 120 119 -118 117 116 115 114 113 0
97 120 119 -118 117 116 115 114 113 0
-92 120 119 -118 117 116 115 114 113 0
98 120 119 -118 117 116 115 114 113 0
97 120 119 -118 117 116 115 114 113 0
85 -120 119 -118 117 116 115 114 113 0
93 121 -120 119 -118 117 116 115 114 113 0
98 121 -120 119 -118 117 116 115 114 113 0
-98 -97 121 -120 119 -118 117 116 115 114 113 0
-92 -121 -120 119 -118 117 116 115 114 113 0
-98 97 -121 -120 119 -118 117 116 115 114 113 0
-86 121 120 -119 -118 117 116 115 114 113 0
94 121 120 -119 -118 117 116 115 114 113 0
-98 121 120 -119 -118 117 116 115 114 113 0
-97 121 120 -119 -118 117 116 115 114 113 0
-93 121 120 -119 -118 117 116 115 114 113 0
-98 121 120 -119 -118 117 116 115 114 113 0
-97 121 120 -119 -118 117 116 115 114 113 0
86 -121 120 -119 -118 117 116 115 114 113 0
94 122 -121 120 -119 -118 117 116 115 114 113 0
-98 122 -121 120 -119 -118 117 116 115 114 113 0
98 97 122 -121 120 -119 -118 117 116 115 114 113 0
-93 -122 -121 120 -119 -118 117 116 115 114 113 0
98 -97 -122 -121 120 -119 -118 117 116 115 114 113 0
-87 122 121 -120 -119 -118 117 116 115 114 113 0
95 122 121 -120 -119 -118 117 116 115 114 113 0
98 122 121 -120 -119 -118 117 116 115 114 113 0
-97 122 121 -120 -119 -118 117 116 115 114 113 0
-94 122 121 -120 -119 -118 117 116 115 114 113 0
98 122 121 -120 -119 -118 117 116 115 114 113 0
-97 122 121 -120 -119 -118 117 116 115 114 113 0
87 -122 121 -120 -119 -118 117 116 115 114 113 0
95 123 -122 121 -120 -119 -118 117 116 115 114 113 0
98 123 -122 121 -120 -119 -118 117 116 115 114 113 0
-98 97 123 -122 121 -120 -119 -118 117 116 115 114 113 0
-94 -123 -122 121 -120 -119 -118 117 116 115 114 113 0
-98 -97 -123 -122 121 -120 -119 -118 117 116 115 114 113 0
-88 122 -121 -120 -119 -118 117 116 115 114 113 0
92 122 -121 -120 -119 -118 117 116 115 114 113 0
-98 122 -121 -120 -119 -118 117 116 115 114 113 0
-97 122 -121 -120 -119 -118 117 116 115 114 113 0
-96 122 -121 -120 -119 -118 117 116 115 114 113 0
-95 122 -121 -120 -119 -118 117 116 115 114 113 0
-98 122 -121 -120 -119 -118 117 116 115 114 113 0
-97 122 -121 -120 -119 -118 117 116 115 114 113 0
-96 122 -121 -120 -119 -118 117 116 115 114 113 0
88 -122 -121 -120 -119 -118 117 116 115 114 113 0
92 123 -122 -121 -120 -119 -118 117 116 115 114 113 0
-98 123 -122 -121 -120 -119 -118 117 116 115 114 113 0
98 -97 123 -122 -121 -120 -119 -118 117 116 115 114 113 0
98 97 96 123 -122 -121 -120 -119 -118 117 116 115 114 113 0
-95 -123 -122 -121 -120 -119 -118 117 116 115 114 113 0
98 97 -96 -123 -122 -121 -120 -119 -118 117 116 115 114 113 0
85 86 88 87 78 79 81 80 -117 116 115 114 113 0
-78 119 118 -117 116 115 114 113 0
86 119 118 -117 116 115 114 113 0
91 119 118 -117 116 115 114 113 0
90 119 118 -117 116 115 114 113 0
-85 119 118 -117 116 115 114 113 0
91 119 118 -117 116 115 114 113 0
90 119 118 -117 116 115 114 113 0
78 -119 118 -117 116 115 114 113 0
86 120 -119 118 -117 116 115 114 113 0
91 120 -119 118 -117 116 115 114 113 0
-91 -90 120 -119 118 -117 116 115 114 113 0
-85 -120 -119 118 -117 116 115 114 113 0
-91 90 -120 -119 118 -117 116 115 114 113 0
-79 120 119 -118 -117 116 115 114 113 0
87 120 119 -118 -117 116 115 114 113 0
-91 120 119 -118 -117 116 115 114 113 0
-90 120 119 -118 -117 116 115 114 113 0
-86 120 119 -118 -117 116 115 114 113 0
-91 120 119 -118 -117 116 115 114 113 0
-90 120 119 -118 -117 116 115 114 113 0
79 -120 119 -118 -117 116 115 114 113 0
87 121 -120 119 -118 -117 116 115 114 113 0
-91 121 -120 119 -118 -117 116 115 114 113 0
91 90 121 -120 119 -118 -117 116 115 114 113 0
-86 -121 -120 119 -118 -117 116 115 114 113 0
91 -90 -121 -120 119 -118 -117 116 115 114 113 0
-80 121 120 -119 -118 -117 116 115 114 113 0
88 121 120 -119 -118 -117 116 115 114 113 0
91 121 120 -119 -118 -117 116 115 114 113 0
-90 121 120 -119 -118 -117 116 115 114 113 0
-87 121 120 -119 -118 -117 116 115 114 113 0
91 121 120 -119 -118 -117 116 115 114 113 0
-90 121 120 -119 -118 -117 116 115 114 113 0
80 -121 120 -119 -118 -117 116 115 114 113 0
88 122 -121 120 -119 -118 -117 116 115 114 113 0
91 122 -121 120 -119 -118 -117 116 115 114 113 0
-91 90 122 -121 120 -119 -118 -117 116 115 114 113 0
-87 -122 -121 120 -119 -118 -117 116 115 114 113 0
-91 -90 -122 -121 120 -119 -118 -117 116 115 114 113 0
-81 121 -120 -119 -118 -117 116 115 114 113 0
85 121 -120 -119 -118 -117 116 115 114 113 0
-91 121 -120 -119 -118 -117 116 115 114 113 0
-90 121 -120 -119 -118 -117 116 115 114 113 0
-89 121 -120 -119 -118 -117 116 115 114 113 0
-88 121 -120 -119 -118 -117 116 115 114 113 0
-91 121 -120 -119 -118 -117 116 115 114 113 0
-90 121 -120 -119 -118 -117 116 115 114 113 0
-89 121 -120 -119 -118 -117 116 115 114 113 0
81 -121 -120 -119 -118 -117 116 115 114 113 0
85 122 -121 -120 -119 -118 -117 116 115 114 113 0
-91 122 -121 -120 -119 -118 -117 116 115 114 113 0
91 -90 122 -121 -120 -119 -118 -117 116 115 114 113 0
91 90 89 122 -121 -120 -119 -118 -117 116 115 114 113 0
-88 -122 -121 -120 -119 -118 -117 116 115 114 113 0
91 90 -89 -122 -121 -120 -119 -118 -117 116 115 114 113 0
78 79 81 80 71 72 74 73 -116 115 114 113 0
-71 118 117 -116 115 114 113 0
79 118 117 -116 115 114 113 0
84 118 117 -116 115 114 113 0
83 118 117 -116 115 114 113 0
-78 118 117 -116 115 114 113 0
84 118 117 -116 115 114 113 0
83 118 117 -116 115 114 113 0
71 -118 117 -116 115 114 113 0
79 119 -118 117 -116 115 114 113 0
84 119 -118 117 -116 115 114 113 0
-84 -83 119 -118 117 -116 115 114 113 0
-78 -119 -118 117 -116 115 114 113 0
-84 83 -119 -118 117 -116 115 114 113 0
-72 119 118 -117 -116 115 114 113 0
80 119 118 -117 -116 115 114 113 0
-84 119 118 -117 -116 115 114 113 0
-83 119 118 -117 -116 115 114 113 0
-79 119 118 -117 -116 115 114 113 0
-84 119 118 -117 -116 115 114 113 0
-83 119 118 -117 -116 115 114 113 0
72 -119 118 -117 -116 115 114 113 0
80 120 -119 118 -117 -116 115 114 113 0
-84 120 -119 118 -117 -116 115 114 113 0
84 83 120 -119 118 -117 -116 115 114 113 0
-79 -120 -119 118 -117 -116 115 114 113 0
84 -83 -120 -119 118 -117 -116 115 114 113 0
-73 120 119 -118 -117 -116 115 114 113 0
81 120 119 -118 -117 -116 115 114 113 0
84 120 119 -118 -117 -116 115 114 113 0
-83 120 119 -118 -117 -116 115 114 113 0
-80 120 119 -118 -117 -116 115 114 113 0
84 120 119 -118 -117 -116 115 114 113 0
-83 120 119 -118 -117 -116 115 114 113 0
73 -120 119 -118 -117 -116 115 114 113 0
81 121 -120 119 -118 -117 -116 115 114 113 0
84 121 -120 119 -118 -117 -116 115 114 113 0
-84 83 121 -120 119 -118 -117 -116 115 114 113 0
-80 -121 -120 119 -118 -117 -116 115 114 113 0
-84 -83 -121 -120 119 -118 -117 -116 115 114 113 0
-74 120 -119 -118 -117 -116 115 114 113 0
78 120 -119 -118 -117 -116 115 114 113 0
-84 120 -119 -118 -117 -116 115 114 113 0
-83 120 -119 -118 -117 -116 115 114 113 0
-82 120 -119 -118 -117 -116 115 114 113 0
-81 120 -119 -118 -117 -116 115 114 113 0
-84 120 -119 -118 -117 -116 115 114 113 0
-83 120 -119 -118 -117 -116 115 114 113 0
-82 120 -119 -118 -117 -116 115 114 113 0
74 -120 -119 -118 -117 -116 115 114 113 0
78 121 -120 -119 -118 -117 -116 115 114 113 0
-84 121 -120 -119 -118 -117 -116 115 114 113 0
84 -83 121 -120 -119 -118 -117 -116 115 114 113 0
84 83 82 121 -120 -119 -118 -117 -116 115 114 113 0
-81 -121 -120 -119 -118 -117 -116 115 114 113 0
84 83 -82 -121 -120 -119 -118 -117 -116 115 114 113 0
71 72 74 73 64 65 67 66 -115 114 113 0
-64 117 116 -115 114 113 0
72 117 116 -115 114 113 0
77 117 116 -115 114 113 0
76 117 116 -115 114 113 0
-71 117 116 -115 114 113 0
77 117 116 -115 114 113 0
76 117 116 -115 114 113 0
64 -117 116 -115 114 113 0
72 118 -117 116 -115 114 113 0
77 118 -117 116 -115 114 113 0
-77 -76 118 -117 116 -115 114 113 0
-71 -118 -117 116 -115 114 113 0
-77 76 -118 -117 116 -115 114 113 0
-65 118 117 -116 -115 114 113 0
73 118 117 -116 -115 114 113 0
-77 118 117 -116 -115 114 113 0
-76 118 117 -116 -115 114 113 0
-72 118 117 -116 -115 114 113 0
-77 118 117 -116 -115 114 113 0
-76 118 117 -116 -115 114 113 0
65 -118 117 -116 -115 114 113 0
73 119 -118 117 -116 -115 114 113 0
-77 119 -118 117 -116 -115 114 113 0
77 76 119 -118 117 -116 -115 114 113 0
-72 -119 -118 117 -116 -115 114 113 0
77 -76 -119 -118 117 -116 -115 114 113 0
-66 119 118 -117 -116 -115 114 113 0
74 119 118 -117 -116 -115 114 113 0
77 119 118 -117 -116 -115 114 113 0
-76 119 118 -117 -116 -115 114 113 0
-73 119 118 -117 -116 -115 114 113 0
77 119 118 -117 -116 -115 114 113 0
-76 119 118 -117 -116 -115 114 113 0
66 -119 118 -117 -116 -115 114 113 0
74 120 -119 118 -117 -116 -115 114 113 0
77 120 -119 118 -117 -116 -115 114 113 0
-77 76 120 -119 118 -117 -116 -115 114 113 0
-73 -120 -119 118 -117 -116 -115 114 113 0
-77 -76 -120 -119 118 -117 -116 -115 114 113 0
-67 119 -118 -117 -116 -115 114 113 0
71 119 -118 -117 -116 -115 114 113 0
-77 119 -118 -117 -116 -115 114 113 0
-76 119 -118 -117 -116 -115 114 113 0
-75 119 -118 -117 -116 -115 114 113 0
-74 119 -118 -117 -116 -115 114 113 0
-77 119 -118 -117 -116 -115 114 113 0
-76 119 -118 -117 -116 -115 114 113 0
-75 119 -118 -117 -116 -115 114 113 0
67 -119 -118 -117 -116 -115 114 113 0
71 120 -119 -118 -117 -116 -115 114 113 0
-77 120 -119 -118 -117 -116 -115 114 113 0
77 -76 120 -119 -118 -117 -116 -115 114 113 0
77 76 75 120 -119 -118 -117 -116 -115 114 113 0
-74 -120 -119 -118 -117 -116 -115 114 113 0
77 76 -75 -120 -119 -118 -117 -116 -115 114 113 0
64 65 67 66 57 58 60 59 -114 113 0
-57 116 115 -114 113 0
65 116 115 -114 113 0
70 116 115 -114 113 0
69 116 115 -114 113 0
-64 116 115 -114 113 0
70 116 115 -114 113 0
69 116 115 -114 113 0
57 -116 115 -114 113 0
65 117 -116 115 -114 113 0
70 117 -116 115 -114 113 0
-70 -69 117 -116 115 -114 113 0
-64 -117 -116 115 -114 113 0
-70 69 -117 -116 115 -114 113 0
-58 117 116 -115 -114 113 0
66 117 116 -115 -114 113 0
-70 117 116 -115 -114 113 0
-69 117 116 -115 -114 113 0
-65 117 116 -115 -114 113 0
-70 117 116 -115 -114 113 0
-69 117 116 -115 -114 113 0
58 -117 116 -115 -114 113 0
66 118 -117 116 -115 -114 113 0
-70 118 -117 116 -115 -114 113 0
70 69 118 -117 116 -115 -114 113 0
-65 -118 -117 116 -115 -114 113 0
70 -69 -118 -117 116 -115 -114 113 0
-59 118 117 -116 -115 -114 113 0
67 118 117 -116 -115 -114 113 0
70 118 117 -116 -115 -114 113 0
-69 118 117 -116 -115 -114 113 0
-66 118 117 -116 -115 -114 113 0
70 118 117 -116 -115 -114 113 0
-69 118 117 -116 -115 -114 113 0
59 -118 117 -116 -115 -114 113 0
67 119 -118 117 -116 -115 -114 113 0
70 119 -118 117 -116 -115 -114 113 0
-70 69 119 -118 117 -116 -115 -114 113 0
-66 -119 -118 117 -116 -115 -114 113 0
-70 -69 -119 -118 117 -116 -115 -114 113 0
-60 118 -117 -116 -115 -114 113 0
64 118 -117 -116 -115 -114 113 0
-70 118 -117 -116 -115 -114 113 0
-69 118 -117 -116 -115 -114 113 0
-68 118 -117 -116 -115 -114 113 0
-67 118 -117 -116 -115 -114 113 0
-70 118 -117 -116 -115 -114 113 0
-69 118 -117 -116 -115 -114 113 0
-68 118 -117 -116 -115 -114 113 0
60 -118 -117 -116 -115 -114 113 0
64 119 -118 -117 -116 -115 -114 113 0
-70 119 -118 -117 -116 -115 -114 113 0
70 -69 119 -118 -117 -116 -115 -114 113 0
70 69 68 119 -118 -117 -116 -115 -114 113 0
-67 -119 -118 -117 -116 -115 -114 113 0
70 69 -68 -119 -118 -117 -116 -115 -114 113 0
7 63 6 62 118 117 116 115 114 -113 0
7 63 -62 -6 118 117 116 115 114 -113 0
-63 -7 6 62 118 117 116 115 114 -113 0
-63 -7 -62 -6 118 117 116 115 114 -113 0
5 61 -118 117 116 115 114 -113 0
-61 -5 -118 117 116 115 114 -113 0
4 60 -117 116 115 114 -113 0
-60 -4 -117 116 115 114 -113 0
3 59 -116 115 114 -113 0
-59 -3 -116 115 114 -113 0
2 58 -115 114 -113 0
-58 -2 -115 114 -113 0
1 57 -114 -113 0
-57 -1 -114 -113 0
